(declare-const a Real)
(declare-const b Real)
(declare-const c Real)
(assert (= (+ a b c) 3))
(assert (> a 0))
(assert (> b 0))
(assert (> c 0))
(assert (not (<= (+ (* -18 (pow (+ a b c) 6)) (* 244215 (pow (+ (* 2 (pow a 2) (pow b 4) (pow c 6)) (* 2 (pow a 2) (pow b 6) (pow c 4))) (/ 1 2))) (* 244215 (pow (+ (* 2 (pow a 4) (pow b 2) (pow c 6)) (* 2 (pow a 6) (pow b 2) (pow c 4))) (/ 1 2))) (* 244215 (pow (+ (* 2 (pow a 4) (pow b 6) (pow c 2)) (* 2 (pow a 6) (pow b 4) (pow c 2))) (/ 1 2))) (* -144342 (pow a 3) (pow b 3)) (* -144342 (pow a 3) (pow c 3)) (* -144342 (pow b 3) (pow c 3)) (* -31347 (pow a 2) (pow b 4)) (* -31347 (pow a 2) (pow c 4)) (* -31347 (pow a 4) (pow b 2)) (* -31347 (pow a 4) (pow c 2)) (* -31347 (pow b 2) (pow c 4)) (* -31347 (pow b 4) (pow c 2)) (* -9477 a (pow b 5)) (* -9477 a (pow c 5)) (* -9477 b (pow a 5)) (* -9477 b (pow c 5)) (* -9477 c (pow a 5)) (* -9477 c (pow b 5)) (* -774198 (pow a 2) (pow b 2) (pow c 2))) 0)))
(check-sat)
(get-model)
(exit)